% File represents an instance of a Composite Structure problem to be solved by a CP framework
% Created on 2025-03-26 10:41:34.544
T = 56;
n = 25;
m = 40;
edges = [(2, 1),
(7, 6),
(12, 11),
(16, 17),
(21, 22),
(2, 3),
(7, 8),
(13, 12),
(18, 17),
(23, 22),
(3, 4),
(8, 9),
(13, 14),
(18, 19),
(23, 24),
(5, 4),
(10, 9),
(14, 15),
(19, 20),
(25, 24),
(6, 1),
(6, 11),
(16, 11),
(16, 21),
(7, 2),
(7, 12),
(12, 17),
(17, 22),
(8, 3),
(13, 8),
(13, 18),
(18, 23),
(9, 4),
(14, 9),
(14, 19),
(19, 24),
(10, 5),
(10, 15),
(15, 20),
(25, 20)];
counts = [|14, 16, 14, 2,
|14, 20, 14, 2,
|12, 20, 12, 2,
|12, 18, 12, 2,
|12, 20, 12, 2,
|14, 18, 14, 4,
|14, 24, 14, 4,
|14, 20, 14, 2,
|12, 20, 12, 2,
|12, 22, 12, 2,
|12, 18, 12, 4,
|14, 20, 14, 4,
|14, 20, 14, 6,
|14, 20, 14, 4,
|12, 20, 12, 2,
|12, 18, 12, 8,
|12, 18, 12, 4,
|12, 20, 12, 6,
|12, 20, 12, 2,
|10, 20, 10, 2,
|12, 16, 12, 8,
|12, 16, 12, 4,
|12, 18, 12, 4,
|12, 16, 12, 2,
|12, 22, 12, 2|];
